(set-info :smt-lib-version 2.7)
(set-logic ALL)
(set-info :source |
Generated on: 2026-06-22
Generator: pog2smtlib-2.7 github.com/CLEARSY/pog2smtlib-2.7 (-l HO_ALL -rpX)
Application: Discharging a proof obligation generated by aTelierB from an anonymized B machine
Target solver: CVC5 (--mbqi --enum-inst)
Time limit: 1200.0
|)
(set-info :license "www.gnu.org/licenses/gpl-3.0.en.html")
(set-info :category "industrial")
(set-info :status unknown)

(declare-datatype C (par (T1 T2) ((maplet (fst T1) (snd T2)))))
(define-sort |Z| () Int)
(declare-sort P 1)
(define-sort |(Z x Z)| () (C |Z| |Z|))
(define-sort |POW Z| () (P |Z|))
(define-sort |POW (Z x Z)| () (P |(Z x Z)|))
(declare-fun |set.in Z| (|Z| |POW Z|) Bool)
(declare-fun |set.in (Z x Z)| (|(Z x Z)| |POW (Z x Z)|) Bool)
(define-sort |POW POW (Z x Z)| () (P |POW (Z x Z)|))
(declare-fun |set.subseteq (Z x Z)| (|POW (Z x Z)| |POW (Z x Z)|) Bool)
(assert (!
    (forall ((s |POW (Z x Z)|) (t |POW (Z x Z)|))
      (=
        (|set.subseteq (Z x Z)| s t)
        (forall ((e |(Z x Z)|)) (=> (|set.in (Z x Z)| e s) (|set.in (Z x Z)| e t)))
      )
    )
    :named |ax.set.subseteq (Z x Z)|))
(declare-fun |set.in POW (Z x Z)| (|POW (Z x Z)| |POW POW (Z x Z)|) Bool)
(declare-fun |sub-sets (Z x Z)| (|POW (Z x Z)|) |POW POW (Z x Z)|)
(assert (!
  (forall ((s |POW (Z x Z)|) (t |POW (Z x Z)|))
    (=
      (|set.in POW (Z x Z)| s (|sub-sets (Z x Z)| t))
      (|set.subseteq (Z x Z)| s t)))
  :named |ax.sub-sets (Z x Z)|))
(declare-fun |set.product Z Z| (|POW Z| |POW Z|) |POW (Z x Z)|)
(assert (!
  (forall ((s1 |POW Z|) (s2 |POW Z|))
    (forall ((p |(Z x Z)|))
      (= (|set.in (Z x Z)| p (|set.product Z Z| s1 s2))
        (and (|set.in Z| (fst p) s1) (|set.in Z| (snd p) s2)))))
  :named |ax.set.in.product.1 (Z x Z)|))
(assert (!
  (forall ((s1 |POW Z|) (s2 |POW Z|))
    (forall ((x1 |Z|) (x2 |Z|))
      (= (|set.in (Z x Z)| (maplet x1 x2) (|set.product Z Z| s1 s2))
        (and (|set.in Z| x1 s1) (|set.in Z| x2 s2)))))
  :named |ax.set.in.product.2 (Z x Z)|))
(declare-fun |relations Z Z| (|POW Z| |POW Z|) |POW POW (Z x Z)|)
(assert (!
  (forall ((X |POW Z|) (Y |POW Z|))
    (= (|relations Z Z| X Y)
       (|sub-sets (Z x Z)| (|set.product Z Z| X Y))))
    :named |def.relations (Z x Z)|))
(declare-fun |functions Z Z| (|POW Z| |POW Z|) |POW POW (Z x Z)|)
(assert (!
  (forall ((X |POW Z|) (Y |POW Z|))
    (forall ((f |POW (Z x Z)|))
      (= (|set.in POW (Z x Z)| f (|functions Z Z| X Y))
         (forall ((p |(Z x Z)|) (q |(Z x Z)|))
           (=> (and (|set.in (Z x Z)| p f) (|set.in (Z x Z)| q f) (= (fst p) (fst q)))
               (= (snd p) (snd q)))))))
:named |ax:set.in.functions (Z x Z)|))
(declare-fun |rel.domain Z Z| (|POW (Z x Z)|) |POW Z|)
(assert (!
  (forall ((r |POW (Z x Z)|) (e |Z|))
    (= (|set.in Z| e (|rel.domain Z Z| r))
       (exists ((y |Z|)) (|set.in (Z x Z)| (maplet e y) r))))
  :named |ax:set.in.domain (Z x Z)|))
(declare-fun |functions.partial Z Z| (|POW Z| |POW Z|) |POW POW (Z x Z)|)
(assert (!
  (forall ((e1 |POW Z|) (e2 |POW Z|))
    (forall ((f |POW (Z x Z)|))
      (= (|set.in POW (Z x Z)| f (|functions.partial Z Z| e1 e2))
         (and (|set.in POW (Z x Z)| f (|relations Z Z| e1 e2))
              (|set.in POW (Z x Z)| f (|functions Z Z| e1 e2))))))
  :named |ax:def.pfun (Z x Z)|)
)
(declare-fun |relations.total Z Z| (|POW Z| |POW Z|) |POW POW (Z x Z)|)
(assert (!
  (forall ((X |POW Z|) (Y |POW Z|))
    (forall ((f |POW (Z x Z)|))
      (= (|set.in POW (Z x Z)| f (|relations.total Z Z| X Y))
         (= (|rel.domain Z Z| f) X))))
 :named |ax:set.in.relations.total (Z x Z)|))
(declare-const s2 |POW Z|)
(define-sort |? (Z x Z)| () (-> |(Z x Z)| Bool))
(declare-const |set.intent (Z x Z)| (-> |? (Z x Z)| |POW (Z x Z)|))
(assert (!
  (forall ((p |? (Z x Z)|))
    (forall ((x |(Z x Z)|))
      (= (|set.in (Z x Z)| x (|set.intent (Z x Z)| p))
         (@ p x))))
  :named |ax:set.in.intent (Z x Z)|))
(declare-fun |functions.total Z Z| (|POW Z| |POW Z|) |POW POW (Z x Z)|)
(assert (!
  (forall ((e1 |POW Z|) (e2 |POW Z|))
    (forall ((f |POW (Z x Z)|))
      (= (|set.in POW (Z x Z)| f (|functions.total Z Z| e1 e2))
         (and (|set.in POW (Z x Z)| f (|functions.partial Z Z| e1 e2))
              (|set.in POW (Z x Z)| f (|relations.total Z Z| e1 e2))))))
  :named |ax:def.tfun (Z x Z)|))
(declare-fun |interval| (|Z| |Z|) |POW Z|)
 (assert (!
    (forall ((l |Z|) (u |Z|) (e |Z|))
        (= (|set.in Z| e (|interval| l u))
            (and (<= l e) (<= e u))))
    :named |ax.set.in.interval|))
(assert (!
  (forall ((s |POW Z|) (t |POW Z|))
    (=
      (= s t)
      (forall ((e |Z|)) (= (|set.in Z| e s) (|set.in Z| e t)))))
  :named |ax.set.eq Z|))
(assert (!
  (= s2 (|interval| 0 255))
  :named |Define:ctx:2|))
(assert (!
  (not
    (|set.in POW (Z x Z)| (|set.intent (Z x Z)| (lambda ((_c0 |(Z x Z)|)) (or (= _c0 (maplet 0 9))(= _c0 (maplet 1 9))))) (|functions.total Z Z| (|interval| 0 1) s2)))
  :named |Goal|))
(check-sat)
(exit)
